p cnf 15 23
1 2 3 4 5 6 7 8 9 10 11 12 13 14 15 0
-1 -2 0
-1 -3 0
-1 -4 0
-1 -5 0
-1 -6 0
-1 -7 0
-1 -8 0
-1 -9 0
-1 -10 0
-1 -11 0
-1 -12 0
-1 -13 0
-1 -14 0
4 6 8 11 15 0
3 7 12 14 0
2 5 14 0
1 2 4 7 9 11 14 0
2 6 9 12 13 0
3 4 8 13 0
1 3 5 7 10 11 15 0
9 10 13 15 0
6 8 10 12 0
